decision_x1=[0,2];
decision_x2=[0,2];
decision_x3=[0,2];
decision_x4=[0,2];
decision_x5=[0,2];
decision_x6=[0,2];
decision_x7=[0,2];
decision_x8=[0,2];
decision_x9=[0,2];
decision_x10=[0,2];
random_y1=[0,2];
random_y2=[0,2];
random_y3=[0,2];
random_y4=[0,2];
constraint_x4_x1=[
0,0,3.1|
0,1,1.5|
0,2,4|
1,0,9.7|
1,1,4.6|
1,2,8.8|
2,0,7.4|
2,1,7.8|
2,2,4.3|
];
constraint_x4_x3=[
0,0,3.3|
0,1,5.9|
0,2,6.9|
1,0,1.9|
1,1,2.7|
1,2,3|
2,0,5.6|
2,1,6.1|
2,2,0.26|
];
constraint_x5_x1=[
0,0,0.063|
0,1,0.39|
0,2,6.9|
1,0,1.4|
1,1,4|
1,2,9.1|
2,0,5.5|
2,1,3.8|
2,2,1.7|
];
constraint_x6_x1=[
0,0,6.3|
0,1,0.9|
0,2,2.7|
1,0,3.6|
1,1,6.6|
1,2,1.2|
2,0,0.33|
2,1,3.1|
2,2,9.8|
];
constraint_x6_x4=[
0,0,5.6|
0,1,4.8|
0,2,7.3|
1,0,0.93|
1,1,0.25|
1,2,0.32|
2,0,8.7|
2,1,5.1|
2,2,9.8|
];
constraint_x6_x5=[
0,0,4.3|
0,1,3.2|
0,2,9.9|
1,0,7.1|
1,1,3.4|
1,2,1|
2,0,0.96|
2,1,7|
2,2,6.5|
];
constraint_x7_x2=[
0,0,3.8|
0,1,4.8|
0,2,2.6|
1,0,9|
1,1,6.3|
1,2,3.3|
2,0,4.4|
2,1,2.8|
2,2,4.4|
];
constraint_x7_x3=[
0,0,1.1|
0,1,4.3|
0,2,1.4|
1,0,2.7|
1,1,1.2|
1,2,1.5|
2,0,1.9|
2,1,5.8|
2,2,4.1|
];
constraint_x7_x4=[
0,0,8|
0,1,2.8|
0,2,7.3|
1,0,4.3|
1,1,8.7|
1,2,5.7|
2,0,3.5|
2,1,3.7|
2,2,9|
];
constraint_x7_x6=[
0,0,9.5|
0,1,8.7|
0,2,3|
1,0,6.6|
1,1,9.6|
1,2,3.1|
2,0,3.3|
2,1,8.2|
2,2,1.2|
];
constraint_x8_x1=[
0,0,2.6|
0,1,6.6|
0,2,6.1|
1,0,0.16|
1,1,4.9|
1,2,9.1|
2,0,3.7|
2,1,2.7|
2,2,6.7|
];
constraint_x8_x4=[
0,0,9.9|
0,1,7|
0,2,1.9|
1,0,2.9|
1,1,5.2|
1,2,5.6|
2,0,2.6|
2,1,0.41|
2,2,5.2|
];
constraint_x8_x5=[
0,0,7|
0,1,8.5|
0,2,0.015|
1,0,5.4|
1,1,2.5|
1,2,6.8|
2,0,1.5|
2,1,9.6|
2,2,2.1|
];
constraint_x8_x6=[
0,0,4.9|
0,1,3|
0,2,5|
1,0,4.4|
1,1,2.1|
1,2,7.6|
2,0,9.8|
2,1,8.6|
2,2,7.2|
];
constraint_x9_x2=[
0,0,7.5|
0,1,6.4|
0,2,3.1|
1,0,6.5|
1,1,9.4|
1,2,3|
2,0,7.1|
2,1,7.1|
2,2,2.8|
];
constraint_x9_x5=[
0,0,5.5|
0,1,6.2|
0,2,2.1|
1,0,8.1|
1,1,0.14|
1,2,6.5|
2,0,0.28|
2,1,6.1|
2,2,4.3|
];
constraint_x9_x6=[
0,0,7.5|
0,1,8|
0,2,6.1|
1,0,4.3|
1,1,5|
1,2,5.2|
2,0,5.4|
2,1,3.4|
2,2,1.4|
];
constraint_x9_x7=[
0,0,0.23|
0,1,8.5|
0,2,1.7|
1,0,7.3|
1,1,5.8|
1,2,1.8|
2,0,5.1|
2,1,2.7|
2,2,6.5|
];
constraint_x10_x2=[
0,0,5.5|
0,1,4.4|
0,2,9.9|
1,0,6.1|
1,1,0.029|
1,2,5.1|
2,0,4.1|
2,1,1.9|
2,2,1.9|
];
constraint_x10_x4=[
0,0,3|
0,1,7.2|
0,2,7.1|
1,0,8.6|
1,1,7.9|
1,2,0.41|
2,0,6.5|
2,1,7.6|
2,2,9.7|
];
constraint_x10_x7=[
0,0,7.4|
0,1,0.33|
0,2,8.8|
1,0,5.1|
1,1,0.17|
1,2,6.1|
2,0,3|
2,1,0.52|
2,2,8|
];
constraint_x10_x8=[
0,0,3.1|
0,1,0.82|
0,2,8|
1,0,1.2|
1,1,7.4|
1,2,7.9|
2,0,0.28|
2,1,6.4|
2,2,5|
];
constraint_x10_x9=[
0,0,3.9|
0,1,4.7|
0,2,9.4|
1,0,6.7|
1,1,0.075|
1,2,4.2|
2,0,4.7|
2,1,6|
2,2,9.8|
];
constraint_x1_y1=[
0,0,0.61|
0,1,0.21|
0,2,3.1|
1,0,7.3|
1,1,4.1|
1,2,4.8|
2,0,5.4|
2,1,8.2|
2,2,1.8|
];
constraint_x2_y2=[
0,0,2.7|
0,1,6.2|
0,2,0.28|
1,0,4.6|
1,1,5.5|
1,2,3.1|
2,0,5.6|
2,1,7.3|
2,2,1.3|
];
constraint_x3_y3=[
0,0,4.3|
0,1,8.3|
0,2,0.72|
1,0,6.1|
1,1,8.7|
1,2,9.7|
2,0,4.7|
2,1,9.6|
2,2,7.4|
];
constraint_x4_y4=[
0,0,2.8|
0,1,0.8|
0,2,4.3|
1,0,7.9|
1,1,3.2|
1,2,7.1|
2,0,2.7|
2,1,0.87|
2,2,1.9|
];
initial_distribution_y1=[0.26,0.36,0.37];
initial_distribution_y2=[0.63,0.13,0.24];
initial_distribution_y3=[0.24,0.22,0.54];
initial_distribution_y4=[0.53,0.15,0.33];
transition_y1=[
0.22,0.68,0.1|
0.42,0.35,0.23|
0.7,0.27,0.031|
];
transition_y2=[
0.52,0.21,0.27|
0.43,0.18,0.39|
0.31,0.14,0.54|
];
transition_y3=[
0.093,0.86,0.05|
0.38,0.31,0.31|
0.32,0.13,0.55|
];
transition_y4=[
0.6,0.036,0.36|
0.35,0.4,0.25|
0.37,0.24,0.39|
];
